(set-option :produce-models true)
(declare-fun iniMes_mes0_aceite0 () Int)
(declare-fun comprado_mes0_aceite0 () Int)
(declare-fun refinado_mes0_aceite0 () Int)
(declare-fun iniMes_mes0_aceite1 () Int)
(declare-fun comprado_mes0_aceite1 () Int)
(declare-fun refinado_mes0_aceite1 () Int)
(declare-fun iniMes_mes0_aceite2 () Int)
(declare-fun comprado_mes0_aceite2 () Int)
(declare-fun refinado_mes0_aceite2 () Int)
(declare-fun iniMes_mes0_aceite3 () Int)
(declare-fun comprado_mes0_aceite3 () Int)
(declare-fun refinado_mes0_aceite3 () Int)
(declare-fun iniMes_mes0_aceite4 () Int)
(declare-fun comprado_mes0_aceite4 () Int)
(declare-fun refinado_mes0_aceite4 () Int)
(declare-fun iniMes_mes0_aceite5 () Int)
(declare-fun comprado_mes0_aceite5 () Int)
(declare-fun refinado_mes0_aceite5 () Int)
(declare-fun iniMes_mes1_aceite0 () Int)
(declare-fun comprado_mes1_aceite0 () Int)
(declare-fun refinado_mes1_aceite0 () Int)
(declare-fun iniMes_mes1_aceite1 () Int)
(declare-fun comprado_mes1_aceite1 () Int)
(declare-fun refinado_mes1_aceite1 () Int)
(declare-fun iniMes_mes1_aceite2 () Int)
(declare-fun comprado_mes1_aceite2 () Int)
(declare-fun refinado_mes1_aceite2 () Int)
(declare-fun iniMes_mes1_aceite3 () Int)
(declare-fun comprado_mes1_aceite3 () Int)
(declare-fun refinado_mes1_aceite3 () Int)
(declare-fun iniMes_mes1_aceite4 () Int)
(declare-fun comprado_mes1_aceite4 () Int)
(declare-fun refinado_mes1_aceite4 () Int)
(declare-fun iniMes_mes1_aceite5 () Int)
(declare-fun comprado_mes1_aceite5 () Int)
(declare-fun refinado_mes1_aceite5 () Int)
(declare-fun totalRefinado_mes0 () Int)
(declare-fun costeAlmac_xmes0 () Int)
(declare-fun costeCompra_xmes0 () Int)
(declare-fun ganancia_xmes0 () Int)
(declare-fun totalRefinado_mes1 () Int)
(declare-fun costeAlmac_xmes1 () Int)
(declare-fun costeCompra_xmes1 () Int)
(declare-fun ganancia_xmes1 () Int)
(declare-fun ganancias () Int)
(declare-fun costeAlmacMes () Int)
(declare-fun costeAceiteCompra () Int)
(declare-fun costes () Int)
(declare-fun beneficio () Int)
(assert (<= 0 iniMes_mes0_aceite0 ) )
(assert (<= iniMes_mes0_aceite0 1200 ) )
(assert (<= 0 comprado_mes0_aceite0 ) )
(assert (<= comprado_mes0_aceite0 1200 ) )
(assert (<= 0 refinado_mes0_aceite0 ) )
(assert (<= refinado_mes0_aceite0 1200 ) )
(assert (<= 0 iniMes_mes0_aceite1 ) )
(assert (<= iniMes_mes0_aceite1 1200 ) )
(assert (<= 0 comprado_mes0_aceite1 ) )
(assert (<= comprado_mes0_aceite1 1200 ) )
(assert (<= 0 refinado_mes0_aceite1 ) )
(assert (<= refinado_mes0_aceite1 1200 ) )
(assert (<= 0 iniMes_mes0_aceite2 ) )
(assert (<= iniMes_mes0_aceite2 1200 ) )
(assert (<= 0 comprado_mes0_aceite2 ) )
(assert (<= comprado_mes0_aceite2 1200 ) )
(assert (<= 0 refinado_mes0_aceite2 ) )
(assert (<= refinado_mes0_aceite2 1200 ) )
(assert (<= 0 iniMes_mes0_aceite3 ) )
(assert (<= iniMes_mes0_aceite3 1200 ) )
(assert (<= 0 comprado_mes0_aceite3 ) )
(assert (<= comprado_mes0_aceite3 1200 ) )
(assert (<= 0 refinado_mes0_aceite3 ) )
(assert (<= refinado_mes0_aceite3 1200 ) )
(assert (<= 0 iniMes_mes0_aceite4 ) )
(assert (<= iniMes_mes0_aceite4 1200 ) )
(assert (<= 0 comprado_mes0_aceite4 ) )
(assert (<= comprado_mes0_aceite4 1200 ) )
(assert (<= 0 refinado_mes0_aceite4 ) )
(assert (<= refinado_mes0_aceite4 1200 ) )
(assert (<= 0 iniMes_mes0_aceite5 ) )
(assert (<= iniMes_mes0_aceite5 1200 ) )
(assert (<= 0 comprado_mes0_aceite5 ) )
(assert (<= comprado_mes0_aceite5 1200 ) )
(assert (<= 0 refinado_mes0_aceite5 ) )
(assert (<= refinado_mes0_aceite5 1200 ) )
(assert (<= 0 iniMes_mes1_aceite0 ) )
(assert (<= iniMes_mes1_aceite0 1200 ) )
(assert (<= 0 comprado_mes1_aceite0 ) )
(assert (<= comprado_mes1_aceite0 1200 ) )
(assert (<= 0 refinado_mes1_aceite0 ) )
(assert (<= refinado_mes1_aceite0 1200 ) )
(assert (<= 0 iniMes_mes1_aceite1 ) )
(assert (<= iniMes_mes1_aceite1 1200 ) )
(assert (<= 0 comprado_mes1_aceite1 ) )
(assert (<= comprado_mes1_aceite1 1200 ) )
(assert (<= 0 refinado_mes1_aceite1 ) )
(assert (<= refinado_mes1_aceite1 1200 ) )
(assert (<= 0 iniMes_mes1_aceite2 ) )
(assert (<= iniMes_mes1_aceite2 1200 ) )
(assert (<= 0 comprado_mes1_aceite2 ) )
(assert (<= comprado_mes1_aceite2 1200 ) )
(assert (<= 0 refinado_mes1_aceite2 ) )
(assert (<= refinado_mes1_aceite2 1200 ) )
(assert (<= 0 iniMes_mes1_aceite3 ) )
(assert (<= iniMes_mes1_aceite3 1200 ) )
(assert (<= 0 comprado_mes1_aceite3 ) )
(assert (<= comprado_mes1_aceite3 1200 ) )
(assert (<= 0 refinado_mes1_aceite3 ) )
(assert (<= refinado_mes1_aceite3 1200 ) )
(assert (<= 0 iniMes_mes1_aceite4 ) )
(assert (<= iniMes_mes1_aceite4 1200 ) )
(assert (<= 0 comprado_mes1_aceite4 ) )
(assert (<= comprado_mes1_aceite4 1200 ) )
(assert (<= 0 refinado_mes1_aceite4 ) )
(assert (<= refinado_mes1_aceite4 1200 ) )
(assert (<= 0 iniMes_mes1_aceite5 ) )
(assert (<= iniMes_mes1_aceite5 1200 ) )
(assert (<= 0 comprado_mes1_aceite5 ) )
(assert (<= comprado_mes1_aceite5 1200 ) )
(assert (<= 0 refinado_mes1_aceite5 ) )
(assert (<= refinado_mes1_aceite5 1200 ) )
(assert (<= 0 totalRefinado_mes0 ) )
(assert (<= totalRefinado_mes0 7200 ) )
(assert (<= 0 ganancia_xmes0 ) )
(assert (<= 0 costeCompra_xmes0 ) )
(assert (<= 0 costeAlmac_xmes0 ) )
(assert (<= 0 totalRefinado_mes1 ) )
(assert (<= totalRefinado_mes1 7200 ) )
(assert (<= 0 ganancia_xmes1 ) )
(assert (<= 0 costeCompra_xmes1 ) )
(assert (<= 0 costeAlmac_xmes1 ) )
(assert (= iniMes_mes0_aceite0 40 ) )
(assert (= iniMes_mes0_aceite1 30 ) )
(assert (= iniMes_mes0_aceite2 60 ) )
(assert (= iniMes_mes0_aceite3 50 ) )
(assert (= iniMes_mes0_aceite4 20 ) )
(assert (= iniMes_mes0_aceite5 40 ) )
(assert (= 40 (- (+ iniMes_mes1_aceite0 comprado_mes1_aceite0 ) refinado_mes1_aceite0 ) ) )
(assert (= 30 (- (+ iniMes_mes1_aceite1 comprado_mes1_aceite1 ) refinado_mes1_aceite1 ) ) )
(assert (= 60 (- (+ iniMes_mes1_aceite2 comprado_mes1_aceite2 ) refinado_mes1_aceite2 ) ) )
(assert (= 50 (- (+ iniMes_mes1_aceite3 comprado_mes1_aceite3 ) refinado_mes1_aceite3 ) ) )
(assert (= 20 (- (+ iniMes_mes1_aceite4 comprado_mes1_aceite4 ) refinado_mes1_aceite4 ) ) )
(assert (= 40 (- (+ iniMes_mes1_aceite5 comprado_mes1_aceite5 ) refinado_mes1_aceite5 ) ) )
(assert (= iniMes_mes1_aceite0 (- (+ iniMes_mes0_aceite0 comprado_mes0_aceite0 ) refinado_mes0_aceite0 ) ) )
(assert (= iniMes_mes1_aceite1 (- (+ iniMes_mes0_aceite1 comprado_mes0_aceite1 ) refinado_mes0_aceite1 ) ) )
(assert (= iniMes_mes1_aceite2 (- (+ iniMes_mes0_aceite2 comprado_mes0_aceite2 ) refinado_mes0_aceite2 ) ) )
(assert (= iniMes_mes1_aceite3 (- (+ iniMes_mes0_aceite3 comprado_mes0_aceite3 ) refinado_mes0_aceite3 ) ) )
(assert (= iniMes_mes1_aceite4 (- (+ iniMes_mes0_aceite4 comprado_mes0_aceite4 ) refinado_mes0_aceite4 ) ) )
(assert (= iniMes_mes1_aceite5 (- (+ iniMes_mes0_aceite5 comprado_mes0_aceite5 ) refinado_mes0_aceite5 ) ) )
(assert (<= (+ refinado_mes0_aceite2 (+ refinado_mes0_aceite1 refinado_mes0_aceite0 ) ) 240 ) )
(assert (<= (+ refinado_mes1_aceite2 (+ refinado_mes1_aceite1 refinado_mes1_aceite0 ) ) 240 ) )
(assert (<= (+ refinado_mes0_aceite5 (+ refinado_mes0_aceite4 refinado_mes0_aceite3 ) ) 250 ) )
(assert (<= (+ refinado_mes1_aceite5 (+ refinado_mes1_aceite4 refinado_mes1_aceite3 ) ) 250 ) )
(assert (<= (+ comprado_mes0_aceite0 iniMes_mes0_aceite0 ) 1200 ) )
(assert (<= (+ comprado_mes0_aceite1 iniMes_mes0_aceite1 ) 1200 ) )
(assert (<= (+ comprado_mes0_aceite2 iniMes_mes0_aceite2 ) 1200 ) )
(assert (<= (+ comprado_mes0_aceite3 iniMes_mes0_aceite3 ) 1200 ) )
(assert (<= (+ comprado_mes0_aceite4 iniMes_mes0_aceite4 ) 1200 ) )
(assert (<= (+ comprado_mes0_aceite5 iniMes_mes0_aceite5 ) 1200 ) )
(assert (<= (+ comprado_mes1_aceite0 iniMes_mes1_aceite0 ) 1200 ) )
(assert (<= (+ comprado_mes1_aceite1 iniMes_mes1_aceite1 ) 1200 ) )
(assert (<= (+ comprado_mes1_aceite2 iniMes_mes1_aceite2 ) 1200 ) )
(assert (<= (+ comprado_mes1_aceite3 iniMes_mes1_aceite3 ) 1200 ) )
(assert (<= (+ comprado_mes1_aceite4 iniMes_mes1_aceite4 ) 1200 ) )
(assert (<= (+ comprado_mes1_aceite5 iniMes_mes1_aceite5 ) 1200 ) )
(assert (= totalRefinado_mes0 (+ refinado_mes0_aceite5 (+ refinado_mes0_aceite4 (+ refinado_mes0_aceite3 (+ refinado_mes0_aceite2 (+ refinado_mes0_aceite1 refinado_mes0_aceite0 ) ) ) ) ) ) )
(assert (= totalRefinado_mes1 (+ refinado_mes1_aceite5 (+ refinado_mes1_aceite4 (+ refinado_mes1_aceite3 (+ refinado_mes1_aceite2 (+ refinado_mes1_aceite1 refinado_mes1_aceite0 ) ) ) ) ) ) )
(assert (<= (+ (* refinado_mes0_aceite5 4.0 ) (+ (* refinado_mes0_aceite4 5.0 ) (+ (* refinado_mes0_aceite3 4.0 ) (+ (* refinado_mes0_aceite2 2.0 ) (+ (* refinado_mes0_aceite1 6.0 ) (* refinado_mes0_aceite0 9.0 ) ) ) ) ) ) (* totalRefinado_mes0 6 ) ) )
(assert (>= (+ (* refinado_mes0_aceite5 4.0 ) (+ (* refinado_mes0_aceite4 5.0 ) (+ (* refinado_mes0_aceite3 4.0 ) (+ (* refinado_mes0_aceite2 2.0 ) (+ (* refinado_mes0_aceite1 6.0 ) (* refinado_mes0_aceite0 9.0 ) ) ) ) ) ) (* totalRefinado_mes0 3 ) ) )
(assert (<= (+ (* refinado_mes1_aceite5 4.0 ) (+ (* refinado_mes1_aceite4 5.0 ) (+ (* refinado_mes1_aceite3 4.0 ) (+ (* refinado_mes1_aceite2 2.0 ) (+ (* refinado_mes1_aceite1 6.0 ) (* refinado_mes1_aceite0 9.0 ) ) ) ) ) ) (* totalRefinado_mes1 6 ) ) )
(assert (>= (+ (* refinado_mes1_aceite5 4.0 ) (+ (* refinado_mes1_aceite4 5.0 ) (+ (* refinado_mes1_aceite3 4.0 ) (+ (* refinado_mes1_aceite2 2.0 ) (+ (* refinado_mes1_aceite1 6.0 ) (* refinado_mes1_aceite0 9.0 ) ) ) ) ) ) (* totalRefinado_mes1 3 ) ) )
(assert (= ganancias (* 150 (+ refinado_mes1_aceite5 (+ refinado_mes1_aceite4 (+ refinado_mes1_aceite3 (+ refinado_mes1_aceite2 (+ refinado_mes1_aceite1 (+ refinado_mes1_aceite0 (+ refinado_mes0_aceite5 (+ refinado_mes0_aceite4 (+ refinado_mes0_aceite3 (+ refinado_mes0_aceite2 (+ refinado_mes0_aceite1 refinado_mes0_aceite0 ) ) ) ) ) ) ) ) ) ) ) ) ) )
(assert (= costeAlmacMes (* 3 (+ iniMes_mes1_aceite5 (+ iniMes_mes1_aceite4 (+ iniMes_mes1_aceite3 (+ iniMes_mes1_aceite2 (+ iniMes_mes1_aceite1 iniMes_mes1_aceite0 ) ) ) ) ) ) ) )
(assert (= costeAceiteCompra (+ (* comprado_mes1_aceite5 8 ) (+ (* comprado_mes1_aceite4 10 ) (+ (* comprado_mes1_aceite3 9 ) (+ (* comprado_mes1_aceite2 8 ) (+ (* comprado_mes1_aceite1 9 ) (+ (* comprado_mes1_aceite0 10 ) (+ (* comprado_mes0_aceite5 9 ) (+ (* comprado_mes0_aceite4 11 ) (+ (* comprado_mes0_aceite3 11 ) (+ (* comprado_mes0_aceite2 13 ) (+ (* comprado_mes0_aceite1 12 ) (* comprado_mes0_aceite0 11 ) ) ) ) ) ) ) ) ) ) ) ) ) )
(assert (= costes (+ 720 (+ costeAceiteCompra costeAlmacMes ) ) ) )
(assert (= beneficio (- ganancias costes ) ) )
(assert (= ganancia_xmes0 (* 150 (+ refinado_mes0_aceite5 (+ refinado_mes0_aceite4 (+ refinado_mes0_aceite3 (+ refinado_mes0_aceite2 (+ refinado_mes0_aceite1 refinado_mes0_aceite0 ) ) ) ) ) ) ) )
(assert (= ganancia_xmes1 (* 150 (+ refinado_mes1_aceite5 (+ refinado_mes1_aceite4 (+ refinado_mes1_aceite3 (+ refinado_mes1_aceite2 (+ refinado_mes1_aceite1 (+ refinado_mes1_aceite0 refinado_mes0_aceite0 ) ) ) ) ) ) ) ) )
(assert (= costeAlmac_xmes0 (* 3 (+ iniMes_mes1_aceite5 (+ iniMes_mes1_aceite4 (+ iniMes_mes1_aceite3 (+ iniMes_mes1_aceite2 (+ iniMes_mes1_aceite1 iniMes_mes1_aceite0 ) ) ) ) ) ) ) )
(assert (= costeAlmac_xmes1 720 ) )
(assert (= costeCompra_xmes0 (+ (* comprado_mes0_aceite5 9 ) (+ (* comprado_mes0_aceite4 11 ) (+ (* comprado_mes0_aceite3 11 ) (+ (* comprado_mes0_aceite2 13 ) (+ (* comprado_mes0_aceite1 12 ) (* comprado_mes0_aceite0 11 ) ) ) ) ) ) ) )
(assert (= costeCompra_xmes1 (+ (* comprado_mes1_aceite5 8 ) (+ (* comprado_mes1_aceite4 10 ) (+ (* comprado_mes1_aceite3 9 ) (+ (* comprado_mes1_aceite2 8 ) (+ (* comprado_mes1_aceite1 9 ) (+ (* comprado_mes1_aceite0 10 ) (* comprado_mes0_aceite0 11 ) ) ) ) ) ) ) ) )
(assert (<= (+ (ite (> refinado_mes0_aceite5 0 ) 1 0 ) (+ (ite (> refinado_mes0_aceite4 0 ) 1 0 ) (+ (ite (> refinado_mes0_aceite3 0 ) 1 0 ) (+ (ite (> refinado_mes0_aceite2 0 ) 1 0 ) (+ (ite (> refinado_mes0_aceite1 0 ) 1 0 ) (+ (ite (> refinado_mes0_aceite0 0 ) 1 0 ) refinado_mes1_aceite3 ) ) ) ) ) ) 5 ) )
(assert (<= (+ (ite (> refinado_mes1_aceite5 0 ) 1 0 ) (+ (ite (> refinado_mes1_aceite4 0 ) 1 0 ) (+ (ite (> refinado_mes1_aceite3 0 ) 1 0 ) (+ (ite (> refinado_mes1_aceite2 0 ) 1 0 ) (+ (ite (> refinado_mes1_aceite1 0 ) 1 0 ) (+ (ite (> refinado_mes1_aceite0 0 ) 1 0 ) refinado_mes1_aceite3 ) ) ) ) ) ) 5 ) )
(assert (=> (> refinado_mes0_aceite0 0 ) (>= refinado_mes0_aceite0 50 ) ) )
(assert (=> (> refinado_mes0_aceite1 0 ) (>= refinado_mes0_aceite1 50 ) ) )
(assert (=> (> refinado_mes0_aceite2 0 ) (>= refinado_mes0_aceite2 50 ) ) )
(assert (=> (> refinado_mes0_aceite3 0 ) (>= refinado_mes0_aceite3 50 ) ) )
(assert (=> (> refinado_mes0_aceite4 0 ) (>= refinado_mes0_aceite4 50 ) ) )
(assert (=> (> refinado_mes0_aceite5 0 ) (>= refinado_mes0_aceite5 50 ) ) )
(assert (=> (> refinado_mes1_aceite0 0 ) (>= refinado_mes1_aceite0 50 ) ) )
(assert (=> (> refinado_mes1_aceite1 0 ) (>= refinado_mes1_aceite1 50 ) ) )
(assert (=> (> refinado_mes1_aceite2 0 ) (>= refinado_mes1_aceite2 50 ) ) )
(assert (=> (> refinado_mes1_aceite3 0 ) (>= refinado_mes1_aceite3 50 ) ) )
(assert (=> (> refinado_mes1_aceite4 0 ) (>= refinado_mes1_aceite4 50 ) ) )
(assert (=> (> refinado_mes1_aceite5 0 ) (>= refinado_mes1_aceite5 50 ) ) )
(assert (<= 200 (+ comprado_mes1_aceite0 comprado_mes0_aceite0 ) ) )
(assert (<= 0 (+ comprado_mes1_aceite1 comprado_mes0_aceite1 ) ) )
(assert (<= 0 (+ comprado_mes1_aceite2 comprado_mes0_aceite2 ) ) )
(assert (<= 0 (+ comprado_mes1_aceite3 comprado_mes0_aceite3 ) ) )
(assert (<= 0 (+ comprado_mes1_aceite4 comprado_mes0_aceite4 ) ) )
(assert (<= 0 (+ comprado_mes1_aceite5 comprado_mes0_aceite5 ) ) )
(assert (<= 300 (+ refinado_mes0_aceite5 (+ refinado_mes0_aceite4 (+ refinado_mes0_aceite3 (+ refinado_mes0_aceite2 (+ refinado_mes0_aceite1 refinado_mes0_aceite0 ) ) ) ) ) ) )
(assert (<= 300 (+ refinado_mes1_aceite5 (+ refinado_mes1_aceite4 (+ refinado_mes1_aceite3 (+ refinado_mes1_aceite2 (+ refinado_mes1_aceite1 refinado_mes1_aceite0 ) ) ) ) ) ) )
(assert (=> (> refinado_mes0_aceite3 0 ) (= refinado_mes0_aceite4 0 ) ) )
(assert (=> (> refinado_mes0_aceite4 0 ) (= refinado_mes0_aceite3 0 ) ) )
(assert (=> (> refinado_mes1_aceite3 0 ) (= refinado_mes1_aceite4 0 ) ) )
(assert (=> (> refinado_mes1_aceite4 0 ) (= refinado_mes1_aceite3 0 ) ) )
(assert (>= beneficio 110000 ) )
(assert-soft (>= beneficio 1210000 ) :id idTotal :weight 1500.0 )
(assert-soft (and (>= beneficio 110000 ) (< beneficio 121000.00000000001 ) ) :id idTotal :weight 100.0 )
(assert-soft (and (>= beneficio 121000.00000000001 ) (< beneficio 132000.0 ) ) :id idTotal :weight 110.00000000000001 )
(assert-soft (and (>= beneficio 132000.0 ) (< beneficio 143000.0 ) ) :id idTotal :weight 120.0 )
(assert-soft (and (>= beneficio 143000.0 ) (< beneficio 154000.0 ) ) :id idTotal :weight 130.0 )
(assert-soft (and (>= beneficio 154000.0 ) (< beneficio 165000.0 ) ) :id idTotal :weight 140.0 )
(assert-soft (and (>= beneficio 165000.0 ) (< beneficio 176000.0 ) ) :id idTotal :weight 150.0 )
(assert-soft (and (>= beneficio 176000.0 ) (< beneficio 187000.0 ) ) :id idTotal :weight 160.0 )
(assert-soft (and (>= beneficio 187000.0 ) (< beneficio 198000.0 ) ) :id idTotal :weight 170.0 )
(assert-soft (and (>= beneficio 198000.0 ) (< beneficio 209000.0 ) ) :id idTotal :weight 180.0 )
(assert-soft (and (>= beneficio 209000.0 ) (< beneficio 220000 ) ) :id idTotal :weight 190.0 )
(assert-soft (and (>= beneficio 220000 ) (< beneficio 231000.0 ) ) :id idTotal :weight 200.0 )
(assert-soft (and (>= beneficio 231000.0 ) (< beneficio 242000.00000000003 ) ) :id idTotal :weight 210.0 )
(assert-soft (and (>= beneficio 242000.00000000003 ) (< beneficio 252999.99999999997 ) ) :id idTotal :weight 220.00000000000003 )
(assert-soft (and (>= beneficio 252999.99999999997 ) (< beneficio 264000.0 ) ) :id idTotal :weight 229.99999999999997 )
(assert-soft (and (>= beneficio 264000.0 ) (< beneficio 275000.0 ) ) :id idTotal :weight 240.0 )
(assert-soft (and (>= beneficio 275000.0 ) (< beneficio 286000.0 ) ) :id idTotal :weight 250.0 )
(assert-soft (and (>= beneficio 286000.0 ) (< beneficio 297000.0 ) ) :id idTotal :weight 260.0 )
(assert-soft (and (>= beneficio 297000.0 ) (< beneficio 308000.0 ) ) :id idTotal :weight 270.0 )
(assert-soft (and (>= beneficio 308000.0 ) (< beneficio 319000.0 ) ) :id idTotal :weight 280.0 )
(assert-soft (and (>= beneficio 319000.0 ) (< beneficio 330000 ) ) :id idTotal :weight 290.0 )
(assert-soft (and (>= beneficio 330000 ) (< beneficio 341000.0 ) ) :id idTotal :weight 300.0 )
(assert-soft (and (>= beneficio 341000.0 ) (< beneficio 352000.0 ) ) :id idTotal :weight 310.0 )
(assert-soft (and (>= beneficio 352000.0 ) (< beneficio 363000.0 ) ) :id idTotal :weight 320.0 )
(assert-soft (and (>= beneficio 363000.0 ) (< beneficio 374000.0 ) ) :id idTotal :weight 330.0 )
(assert-soft (and (>= beneficio 374000.0 ) (< beneficio 385000.0 ) ) :id idTotal :weight 340.0 )
(assert-soft (and (>= beneficio 385000.0 ) (< beneficio 396000.0 ) ) :id idTotal :weight 350.0 )
(assert-soft (and (>= beneficio 396000.0 ) (< beneficio 407000.0 ) ) :id idTotal :weight 360.0 )
(assert-soft (and (>= beneficio 407000.0 ) (< beneficio 418000.0 ) ) :id idTotal :weight 370.0 )
(assert-soft (and (>= beneficio 418000.0 ) (< beneficio 429000.0 ) ) :id idTotal :weight 380.0 )
(assert-soft (and (>= beneficio 429000.0 ) (< beneficio 440000 ) ) :id idTotal :weight 390.0 )
(assert-soft (and (>= beneficio 440000 ) (< beneficio 450999.99999999994 ) ) :id idTotal :weight 400.0 )
(assert-soft (and (>= beneficio 450999.99999999994 ) (< beneficio 462000.0 ) ) :id idTotal :weight 409.99999999999994 )
(assert-soft (and (>= beneficio 462000.0 ) (< beneficio 473000.0 ) ) :id idTotal :weight 420.0 )
(assert-soft (and (>= beneficio 473000.0 ) (< beneficio 484000.00000000006 ) ) :id idTotal :weight 430.0 )
(assert-soft (and (>= beneficio 484000.00000000006 ) (< beneficio 495000.0 ) ) :id idTotal :weight 440.00000000000006 )
(assert-soft (and (>= beneficio 495000.0 ) (< beneficio 505999.99999999994 ) ) :id idTotal :weight 450.0 )
(assert-soft (and (>= beneficio 505999.99999999994 ) (< beneficio 517000.0 ) ) :id idTotal :weight 459.99999999999994 )
(assert-soft (and (>= beneficio 517000.0 ) (< beneficio 528000.0 ) ) :id idTotal :weight 470.0 )
(assert-soft (and (>= beneficio 528000.0 ) (< beneficio 539000.0 ) ) :id idTotal :weight 480.0 )
(assert-soft (and (>= beneficio 539000.0 ) (< beneficio 550000 ) ) :id idTotal :weight 490.00000000000006 )
(assert-soft (and (>= beneficio 550000 ) (< beneficio 561000.0 ) ) :id idTotal :weight 500.0 )
(assert-soft (and (>= beneficio 561000.0 ) (< beneficio 572000.0 ) ) :id idTotal :weight 509.99999999999994 )
(assert-soft (and (>= beneficio 572000.0 ) (< beneficio 583000.0 ) ) :id idTotal :weight 520.0 )
(assert-soft (and (>= beneficio 583000.0 ) (< beneficio 594000.0 ) ) :id idTotal :weight 530.0 )
(assert-soft (and (>= beneficio 594000.0 ) (< beneficio 605000.0 ) ) :id idTotal :weight 540.0 )
(assert-soft (and (>= beneficio 605000.0 ) (< beneficio 616000.0 ) ) :id idTotal :weight 550.0 )
(assert-soft (and (>= beneficio 616000.0 ) (< beneficio 627000.0 ) ) :id idTotal :weight 560.0 )
(assert-soft (and (>= beneficio 627000.0 ) (< beneficio 638000.0 ) ) :id idTotal :weight 570.0 )
(assert-soft (and (>= beneficio 638000.0 ) (< beneficio 649000.0 ) ) :id idTotal :weight 580.0 )
(assert-soft (and (>= beneficio 649000.0 ) (< beneficio 660000 ) ) :id idTotal :weight 590.0 )
(assert-soft (and (>= beneficio 660000 ) (< beneficio 671000.0 ) ) :id idTotal :weight 600.0 )
(assert-soft (and (>= beneficio 671000.0 ) (< beneficio 682000.0 ) ) :id idTotal :weight 610.0 )
(assert-soft (and (>= beneficio 682000.0 ) (< beneficio 693000.0 ) ) :id idTotal :weight 620.0 )
(assert-soft (and (>= beneficio 693000.0 ) (< beneficio 704000.0 ) ) :id idTotal :weight 630.0 )
(assert-soft (and (>= beneficio 704000.0 ) (< beneficio 715000.0 ) ) :id idTotal :weight 640.0 )
(assert-soft (and (>= beneficio 715000.0 ) (< beneficio 726000.0 ) ) :id idTotal :weight 650.0 )
(assert-soft (and (>= beneficio 726000.0 ) (< beneficio 737000.0 ) ) :id idTotal :weight 660.0 )
(assert-soft (and (>= beneficio 737000.0 ) (< beneficio 748000.0 ) ) :id idTotal :weight 670.0 )
(assert-soft (and (>= beneficio 748000.0 ) (< beneficio 759000.0 ) ) :id idTotal :weight 680.0 )
(assert-soft (and (>= beneficio 759000.0 ) (< beneficio 770000 ) ) :id idTotal :weight 690.0 )
(assert-soft (and (>= beneficio 770000 ) (< beneficio 781000.0 ) ) :id idTotal :weight 700.0 )
(assert-soft (and (>= beneficio 781000.0 ) (< beneficio 792000.0 ) ) :id idTotal :weight 710.0 )
(assert-soft (and (>= beneficio 792000.0 ) (< beneficio 803000.0 ) ) :id idTotal :weight 720.0 )
(assert-soft (and (>= beneficio 803000.0 ) (< beneficio 814000.0 ) ) :id idTotal :weight 730.0 )
(assert-soft (and (>= beneficio 814000.0 ) (< beneficio 825000.0 ) ) :id idTotal :weight 740.0 )
(assert-soft (and (>= beneficio 825000.0 ) (< beneficio 836000.0 ) ) :id idTotal :weight 750.0 )
(assert-soft (and (>= beneficio 836000.0 ) (< beneficio 847000.0 ) ) :id idTotal :weight 760.0 )
(assert-soft (and (>= beneficio 847000.0 ) (< beneficio 858000.0 ) ) :id idTotal :weight 770.0 )
(assert-soft (and (>= beneficio 858000.0 ) (< beneficio 869000.0 ) ) :id idTotal :weight 780.0 )
(assert-soft (and (>= beneficio 869000.0 ) (< beneficio 880000 ) ) :id idTotal :weight 790.0 )
(assert-soft (and (>= beneficio 880000 ) (< beneficio 891000.0 ) ) :id idTotal :weight 800.0 )
(assert-soft (and (>= beneficio 891000.0 ) (< beneficio 901999.9999999999 ) ) :id idTotal :weight 810.0 )
(assert-soft (and (>= beneficio 901999.9999999999 ) (< beneficio 913000.0000000001 ) ) :id idTotal :weight 819.9999999999999 )
(assert-soft (and (>= beneficio 913000.0000000001 ) (< beneficio 924000.0 ) ) :id idTotal :weight 830.0000000000001 )
(assert-soft (and (>= beneficio 924000.0 ) (< beneficio 935000.0 ) ) :id idTotal :weight 840.0 )
(assert-soft (and (>= beneficio 935000.0 ) (< beneficio 946000.0 ) ) :id idTotal :weight 850.0 )
(assert-soft (and (>= beneficio 946000.0 ) (< beneficio 956999.9999999999 ) ) :id idTotal :weight 860.0 )
(assert-soft (and (>= beneficio 956999.9999999999 ) (< beneficio 968000.0000000001 ) ) :id idTotal :weight 869.9999999999999 )
(assert-soft (and (>= beneficio 968000.0000000001 ) (< beneficio 979000.0 ) ) :id idTotal :weight 880.0000000000001 )
(assert-soft (and (>= beneficio 979000.0 ) (< beneficio 990000 ) ) :id idTotal :weight 890.0 )
(assert-soft (and (>= beneficio 990000 ) (< beneficio 1001000.0 ) ) :id idTotal :weight 900.0 )
(assert-soft (and (>= beneficio 1001000.0 ) (< beneficio 1011999.9999999999 ) ) :id idTotal :weight 910.0 )
(assert-soft (and (>= beneficio 1011999.9999999999 ) (< beneficio 1023000.0000000001 ) ) :id idTotal :weight 919.9999999999999 )
(assert-soft (and (>= beneficio 1023000.0000000001 ) (< beneficio 1034000.0 ) ) :id idTotal :weight 930.0000000000001 )
(assert-soft (and (>= beneficio 1034000.0 ) (< beneficio 1045000.0 ) ) :id idTotal :weight 940.0 )
(assert-soft (and (>= beneficio 1045000.0 ) (< beneficio 1056000.0 ) ) :id idTotal :weight 950.0 )
(assert-soft (and (>= beneficio 1056000.0 ) (< beneficio 1067000.0 ) ) :id idTotal :weight 960.0 )
(assert-soft (and (>= beneficio 1067000.0 ) (< beneficio 1078000.0 ) ) :id idTotal :weight 969.9999999999999 )
(assert-soft (and (>= beneficio 1078000.0 ) (< beneficio 1089000.0 ) ) :id idTotal :weight 980.0000000000001 )
(assert-soft (and (>= beneficio 1089000.0 ) (< beneficio 1100000 ) ) :id idTotal :weight 990.0 )
(assert-soft (and (>= beneficio 1100000 ) (< beneficio 1111000.0 ) ) :id idTotal :weight 1000.0 )
(assert-soft (and (>= beneficio 1111000.0 ) (< beneficio 1122000.0 ) ) :id idTotal :weight 1010.0 )
(assert-soft (and (>= beneficio 1122000.0 ) (< beneficio 1133000.0 ) ) :id idTotal :weight 1019.9999999999999 )
(assert-soft (and (>= beneficio 1133000.0 ) (< beneficio 1144000.0 ) ) :id idTotal :weight 1030.0 )
(assert-soft (and (>= beneficio 1144000.0 ) (< beneficio 1155000.0 ) ) :id idTotal :weight 1040.0 )
(assert-soft (and (>= beneficio 1155000.0 ) (< beneficio 1166000.0 ) ) :id idTotal :weight 1050.0 )
(assert-soft (and (>= beneficio 1166000.0 ) (< beneficio 1177000.0 ) ) :id idTotal :weight 1060.0 )
(assert-soft (and (>= beneficio 1177000.0 ) (< beneficio 1188000.0 ) ) :id idTotal :weight 1070.0 )
(assert-soft (and (>= beneficio 1188000.0 ) (< beneficio 1199000.0 ) ) :id idTotal :weight 1080.0 )
(assert-soft (and (>= beneficio 1199000.0 ) (< beneficio 1210000 ) ) :id idTotal :weight 1090.0 )
(assert-soft (>= (* ganancia_xmes0 2 ) 110000 ) :id idMes :weight 1125.0 )
(assert-soft (<= (* 3 costeCompra_xmes0 ) ganancia_xmes0 ) :id idMes :weight 1125.0 )
(assert-soft (<= (* 5 costeAlmac_xmes0 ) ganancia_xmes0 ) :id idMes :weight 1125.0 )
(assert-soft (>= (* ganancia_xmes1 2 ) 110000 ) :id idMes :weight 1125.0 )
(assert-soft (<= (* 3 costeCompra_xmes1 ) ganancia_xmes1 ) :id idMes :weight 1125.0 )
(assert-soft (<= (* 5 costeAlmac_xmes1 ) ganancia_xmes1 ) :id idMes :weight 1125.0 )
(check-sat)
(get-objectives)
(get-value (iniMes_mes0_aceite0) )
(get-value (comprado_mes0_aceite0) )
(get-value (refinado_mes0_aceite0) )
(get-value (iniMes_mes0_aceite1) )
(get-value (comprado_mes0_aceite1) )
(get-value (refinado_mes0_aceite1) )
(get-value (iniMes_mes0_aceite2) )
(get-value (comprado_mes0_aceite2) )
(get-value (refinado_mes0_aceite2) )
(get-value (iniMes_mes0_aceite3) )
(get-value (comprado_mes0_aceite3) )
(get-value (refinado_mes0_aceite3) )
(get-value (iniMes_mes0_aceite4) )
(get-value (comprado_mes0_aceite4) )
(get-value (refinado_mes0_aceite4) )
(get-value (iniMes_mes0_aceite5) )
(get-value (comprado_mes0_aceite5) )
(get-value (refinado_mes0_aceite5) )
(get-value (totalRefinado_mes0) )
(get-value (iniMes_mes1_aceite0) )
(get-value (comprado_mes1_aceite0) )
(get-value (refinado_mes1_aceite0) )
(get-value (iniMes_mes1_aceite1) )
(get-value (comprado_mes1_aceite1) )
(get-value (refinado_mes1_aceite1) )
(get-value (iniMes_mes1_aceite2) )
(get-value (comprado_mes1_aceite2) )
(get-value (refinado_mes1_aceite2) )
(get-value (iniMes_mes1_aceite3) )
(get-value (comprado_mes1_aceite3) )
(get-value (refinado_mes1_aceite3) )
(get-value (iniMes_mes1_aceite4) )
(get-value (comprado_mes1_aceite4) )
(get-value (refinado_mes1_aceite4) )
(get-value (iniMes_mes1_aceite5) )
(get-value (comprado_mes1_aceite5) )
(get-value (refinado_mes1_aceite5) )
(get-value (totalRefinado_mes1) )
(get-value (beneficio) )
